
Gurobi 10.0.2 (mac64[rosetta2], Python) logging started Tue Aug  8 00:13:43 2023

Set parameter Username
Set parameter LogFile to value "lin_ivlbc_5.log"
Academic license - for non-commercial use only - expires 2024-03-21
Read LP format model from file lin_ivlbc_5.lp
Reading time = 0.01 seconds
: 2481 rows, 1904 columns, 13984 nonzeros
Gurobi Optimizer version 10.0.2 build v10.0.2rc0 (mac64[rosetta2])

CPU model: Apple M2 Pro
Thread count: 12 physical cores, 12 logical processors, using up to 12 threads

Optimize a model with 2481 rows, 1904 columns and 13984 nonzeros
Model fingerprint: 0x40c6f374
Variable types: 0 continuous, 1904 integer (1904 binary)
Coefficient statistics:
  Matrix range     [1e+00, 6e+00]
  Objective range  [1e+00, 1e+00]
  Bounds range     [1e+00, 1e+00]
  RHS range        [1e+00, 1e+00]
Presolve removed 384 rows and 768 columns
Presolve time: 0.01s
Presolved: 2097 rows, 1136 columns, 12704 nonzeros
Variable types: 0 continuous, 1136 integer (880 binary)
Found heuristic solution: objective 80.0000000

Root relaxation: objective 1.818182e-01, 275 iterations, 0.00 seconds (0.00 work units)

    Nodes    |    Current Node    |     Objective Bounds      |     Work
 Expl Unexpl |  Obj  Depth IntInf | Incumbent    BestBd   Gap | It/Node Time

     0     0    0.18182    0   26   80.00000    0.18182   100%     -    0s
     0     0    0.18182    0   34   80.00000    0.18182   100%     -    0s
     0     0    0.42400    0   45   80.00000    0.42400  99.5%     -    0s
     0     0    0.42400    0   61   80.00000    0.42400  99.5%     -    0s
     0     0    0.67738    0   73   80.00000    0.67738  99.2%     -    0s
     0     0    0.75902    0  134   80.00000    0.75902  99.1%     -    0s
     0     0    1.00000    0   70   80.00000    1.00000  98.8%     -    0s
     0     0    1.00000    0  135   80.00000    1.00000  98.8%     -    0s
     0     0    1.00000    0  142   80.00000    1.00000  98.8%     -    0s
     0     0    1.00000    0  152   80.00000    1.00000  98.8%     -    0s
     0     0    1.00000    0  159   80.00000    1.00000  98.8%     -    0s
     0     0    1.00000    0  142   80.00000    1.00000  98.8%     -    0s
     0     0    1.00000    0  156   80.00000    1.00000  98.8%     -    0s
     0     0    1.00000    0  169   80.00000    1.00000  98.8%     -    0s
     0     0    1.00000    0  197   80.00000    1.00000  98.8%     -    0s
     0     0    1.00000    0  180   80.00000    1.00000  98.8%     -    0s
     0     0    1.00000    0  170   80.00000    1.00000  98.8%     -    0s
     0     0    1.00000    0  196   80.00000    1.00000  98.8%     -    0s
     0     0    1.00000    0  198   80.00000    1.00000  98.8%     -    0s
     0     0    1.00000    0  171   80.00000    1.00000  98.8%     -    0s
H    0     0                      17.0000000    1.00000  94.1%     -    0s
     0     0    1.00000    0  192   17.00000    1.00000  94.1%     -    0s
     0     0    1.00000    0  199   17.00000    1.00000  94.1%     -    0s
     0     0    1.10909    0  206   17.00000    1.10909  93.5%     -    0s
     0     0    1.10909    0  180   17.00000    1.10909  93.5%     -    0s
     0     2    1.10909    0  180   17.00000    1.10909  93.5%     -    0s
 36502 21282    6.00000   28  202   17.00000    5.02366  70.4%  17.1    5s
 51110 25856    5.02366   39   28   17.00000    5.02366  70.4%  16.3   10s
 70438 31522   15.00000   50   52   17.00000    5.75000  66.2%  15.6   15s
 89953 35509   14.05769   53   94   17.00000    6.00000  64.7%  15.5   20s
 109380 42719    9.00000   44   35   17.00000    6.25000  63.2%  15.2   25s
 128087 52959   15.00000   58   67   17.00000    6.48508  61.9%  14.9   30s
 149294 63248    8.00000   44   46   17.00000    6.97016  59.0%  14.8   35s

Cutting planes:
  Gomory: 1
  Lift-and-project: 1
  Cover: 16
  Implied bound: 23
  Clique: 10
  MIR: 3
  StrongCG: 7
  Flow cover: 16
  Inf proof: 2
  Zero half: 39
  RLT: 3

Explored 150469 nodes (2218973 simplex iterations) in 35.13 seconds (56.11 work units)
Thread count was 12 (of 12 available processors)

Solution count 2: 17 80 

Solve interrupted
Best objective 1.700000000000e+01, best bound 7.000000000000e+00, gap 58.8235%
